h 1 0
h -2 0
h 3 2 0
h 2 -3 0
h 4 0
1162837799619483729 -4 0
h 5 6 0
808409451672463010 -5 0
596257085180393113 -7 0
h 8 0
1132626807804328808 -8 0
h 9 0
444213494060979051 -9 0
h -3 10 0
1151385068993981380 -10 0
h 11 0
612443392028019162 -11 0
635169420579488300 -12 0
876873413468642108 -13 0
h 14 0
913055472502284272 -14 0
389223652462317669 -15 0
h 16 0
1177433594812987629 -16 0
72664037618378936 -17 0
h 18 0
1153400417646698506 -18 0
1168807385491283445 -19 0
433871275114694660 -20 0
366781766353696181 -21 0
1316578505135263635 -22 0
712623158144087019 -23 0
h 24 0
1036526133872612417 -24 0
1309169809094762236 -25 0
h 26 0
874265228163043820 -26 0
102127703889662529 -27 0
h -6 -3 0
